Optimal - objective value -47.00000000
      3 sv_cmpi0                      1                      -1
      4 sv_cond_br1                   1                      -1
      5 sv_cond_br2                   1                      -1
      6 sv_cond_br3                   1                      -1
     59 sv_muli0                      1                      -1
     60 sv_muli1                      1                      -1
     61 sv_muli2                      1                      -1
     62 sv_muli3                      1                      -1
     63 sv_muli4                      1                      -1
     64 sv_muli5                      1                      -1
     65 sv_muli6                      1                      -1
     68 sv_return1                    1                      -1
     70 sv_store11                    5                      -1
     71 sv_store14                    5                      -1
     72 sv_store17                    5                      -1
     73 sv_store2                     5                      -1
     74 sv_store20                    5                      -1
     75 sv_store5                     5                      -1
     76 sv_store8                     5                      -1
